Maximize
F - f1 - f2

Subject to
F - 4y267 - 8y36 - 6y227 - 4y17 - 2y47 - 2y103 - 4y66 - 6y64 - 4y148 - 6y22 - 4y226 - 2y187 - 8y99 - 4y169 - 2y77 - 4y156 - 2y171 - 4y50 - 2y86 - 2y37 = 0
f1 - 0.006153s267 - 0.006153s36 - 0.006153s227 - 0.006153s17 - 0.006153s47 - 0.006153s103 - 0.006153s66 - 0.006153s64 - 0.006153s148 - 0.006153s22 - 0.006153s226 - 0.006153s187 - 0.006153s99 - 0.006153s169 - 0.006153s77 - 0.006153s156 - 0.006153s171 - 0.006153s50 - 0.006153s86 - 0.006153s37  = 0
f2 - 1.35y267 - 1.37y36 - 2.22y227 - 1.12y17 - 1.77y47 - 1.25y103 - 0.84y66 - 0.79y64 - 0.89y148 - 0.43y22 - 0.37y226 - 0.32y187 - 2.27y99 - 0.84y169 - 0.13y77 - 0.27y156 - 0.10y171 - 1.53y50 - 1.16y86 - 0.32y37 = 0

x11x36x1 + x11x227x1 + x11x17x1 + x11x47x1 + x11x103x1 + x11x66x1 + x11x226x1 + x11x187x1 + x11x169x1 + x11x156x1 + x11x50x1 + x11x86x1 
<= 1
x71x226x1 + x71x187x1 + x71x169x1 + x71x156x1 + x71x50x1 + x71x86x1 
<= 2
x153x156x1 + x153x50x1 + x153x86x1 
<= 2
x51x227x1 + x51x47x1 + x51x103x1 + x51x66x1 + x51x226x1 + x51x187x1 + x51x169x1 + x51x156x1 + x51x50x1 + x51x86x1 
<= 2
x262x36x1 + x262x227x1 + x262x17x1 + x262x47x1 + x262x103x1 + x262x66x1 + x262x226x1 + x262x187x1 + x262x169x1 + x262x156x1 + x262x50x1 + x262x86x1 
<= 1
x261x36x1 + x261x227x1 + x261x17x1 + x261x47x1 + x261x103x1 + x261x66x1 + x261x226x1 + x261x187x1 + x261x169x1 + x261x156x1 + x261x50x1 + x261x86x1 
<= 1

x194x103x2 + x194x64x2 + x194x148x2 + x194x22x2 + x194x187x2 + x194x99x2 + x194x77x2 + x194x156x2 + x194x171x2 + x194x86x2 
<= 1
x200x148x2 + x200x187x2 + x200x99x2 + x200x77x2 + x200x156x2 + x200x171x2 + x200x86x2 
<= 2
x84x156x2 + x84x86x2 
<= 2
x11x267x3 + x11x227x3 + x11x47x3 + x11x64x3 + x11x22x3 + x11x99x3 + x11x171x3 + x11x37x3 
<= 1
x83x267x3 + x83x227x3 + x83x47x3 + x83x64x3 + x83x22x3 + x83x99x3 + x83x171x3 + x83x37x3 
<= 1
x194x227x3 + x194x47x3 + x194x64x3 + x194x22x3 + x194x99x3 + x194x171x3 + x194x37x3 
<= 1
x244x99x3 + x244x171x3 + x244x37x3 
<= 2
x214x267x3 + x214x227x3 + x214x47x3 + x214x64x3 + x214x22x3 + x214x99x3 + x214x171x3 + x214x37x3 
<= 2
x262x267x3 + x262x227x3 + x262x47x3 + x262x64x3 + x262x22x3 + x262x99x3 + x262x171x3 + x262x37x3 
<= 1
x261x267x3 + x261x227x3 + x261x47x3 + x261x64x3 + x261x22x3 + x261x99x3 + x261x171x3 + x261x37x3 
<= 1



- x267x36x2 - x267x17x2 - x267x103x2 - x267x64x2 - x267x148x2 - x267x22x2 - x267x187x2 - x267x99x2 - x267x77x2 - x267x156x2 - x267x171x2 - x267x86x2 
= 0
x11x267x3 + x83x267x3 + x214x267x3 + x262x267x3 + x261x267x3 
- x267x0x3
- x267x47x3 - x267x64x3 - x267x22x3 - x267x99x3 - x267x171x3 - x267x37x3 
= 0

x11x36x1 + x262x36x1 + x261x36x1 
- x36x0x1
- x36x17x1 - x36x47x1 - x36x103x1 - x36x66x1 - x36x226x1 - x36x187x1 - x36x169x1 - x36x156x1 - x36x50x1 - x36x86x1 
= 0
x267x36x2 
- x36x0x2
- x36x17x2 - x36x103x2 - x36x64x2 - x36x148x2 - x36x22x2 - x36x187x2 - x36x99x2 - x36x77x2 - x36x156x2 - x36x171x2 - x36x86x2 
= 0


x11x227x1 + x51x227x1 + x262x227x1 + x261x227x1 
- x227x0x1
- x227x226x1 - x227x187x1 - x227x169x1 - x227x156x1 - x227x50x1 - x227x86x1 
= 0

x11x227x3 + x83x227x3 + x194x227x3 + x214x227x3 + x262x227x3 + x261x227x3 
- x227x0x3
- x227x22x3 - x227x99x3 - x227x171x3 - x227x37x3 
= 0

x11x17x1 + x262x17x1 + x261x17x1 + x36x17x1 
- x17x0x1
- x17x103x1 - x17x66x1 - x17x226x1 - x17x187x1 - x17x169x1 - x17x156x1 - x17x50x1 - x17x86x1 
= 0
x267x17x2 + x36x17x2 
- x17x0x2
- x17x103x2 - x17x148x2 - x17x22x2 - x17x187x2 - x17x99x2 - x17x77x2 - x17x156x2 - x17x171x2 - x17x86x2 
= 0


x11x47x1 + x51x47x1 + x262x47x1 + x261x47x1 + x36x47x1 
- x47x0x1
- x47x226x1 - x47x187x1 - x47x169x1 - x47x156x1 - x47x50x1 - x47x86x1 
= 0

x11x47x3 + x83x47x3 + x194x47x3 + x214x47x3 + x262x47x3 + x261x47x3 + x267x47x3 
- x47x0x3
- x47x22x3 - x47x99x3 - x47x171x3 - x47x37x3 
= 0

x11x103x1 + x51x103x1 + x262x103x1 + x261x103x1 + x36x103x1 + x17x103x1 
- x103x0x1
- x103x226x1 - x103x187x1 - x103x169x1 - x103x156x1 - x103x50x1 - x103x86x1 
= 0
x194x103x2 + x267x103x2 + x36x103x2 + x17x103x2 
- x103x0x2
- x103x22x2 - x103x187x2 - x103x99x2 - x103x77x2 - x103x156x2 - x103x171x2 - x103x86x2 
= 0


x11x66x1 + x51x66x1 + x262x66x1 + x261x66x1 + x36x66x1 + x17x66x1 
- x66x0x1
- x66x226x1 - x66x187x1 - x66x169x1 - x66x156x1 - x66x50x1 - x66x86x1 
= 0




x194x64x2 + x267x64x2 + x36x64x2 
- x64x0x2
- x64x148x2 - x64x187x2 - x64x77x2 - x64x156x2 - x64x171x2 - x64x86x2 
= 0
x11x64x3 + x83x64x3 + x194x64x3 + x214x64x3 + x262x64x3 + x261x64x3 + x267x64x3 
- x64x0x3
- x64x171x3 - x64x37x3 
= 0


x194x148x2 + x200x148x2 + x267x148x2 + x36x148x2 + x17x148x2 + x64x148x2 
- x148x0x2
- x148x156x2 
= 0



x194x22x2 + x267x22x2 + x36x22x2 + x17x22x2 + x103x22x2 
- x22x0x2
- x22x77x2 - x22x156x2 - x22x171x2 - x22x86x2 
= 0
x11x22x3 + x83x22x3 + x194x22x3 + x214x22x3 + x262x22x3 + x261x22x3 + x267x22x3 + x227x22x3 + x47x22x3 
- x22x0x3
- x22x171x3 - x22x37x3 
= 0

x11x226x1 + x71x226x1 + x51x226x1 + x262x226x1 + x261x226x1 + x36x226x1 + x227x226x1 + x17x226x1 + x47x226x1 + x103x226x1 + x66x226x1 
- x226x0x1
- x226x156x1 - x226x50x1 - x226x86x1 
= 0



x11x187x1 + x71x187x1 + x51x187x1 + x262x187x1 + x261x187x1 + x36x187x1 + x227x187x1 + x17x187x1 + x47x187x1 + x103x187x1 + x66x187x1 
- x187x0x1
- x187x156x1 - x187x50x1 - x187x86x1 
= 0
x194x187x2 + x200x187x2 + x267x187x2 + x36x187x2 + x17x187x2 + x103x187x2 + x64x187x2 
- x187x0x2
- x187x77x2 - x187x156x2 - x187x171x2 - x187x86x2 
= 0



x194x99x2 + x200x99x2 + x267x99x2 + x36x99x2 + x17x99x2 + x103x99x2 
- x99x0x2
- x99x86x2 
= 0
x11x99x3 + x83x99x3 + x194x99x3 + x244x99x3 + x214x99x3 + x262x99x3 + x261x99x3 + x267x99x3 + x227x99x3 + x47x99x3 
- x99x0x3

= 0

x11x169x1 + x71x169x1 + x51x169x1 + x262x169x1 + x261x169x1 + x36x169x1 + x227x169x1 + x17x169x1 + x47x169x1 + x103x169x1 + x66x169x1 
- x169x0x1
- x169x50x1 - x169x86x1 
= 0




x194x77x2 + x200x77x2 + x267x77x2 + x36x77x2 + x17x77x2 + x103x77x2 + x64x77x2 + x22x77x2 + x187x77x2 
- x77x0x2

= 0


x11x156x1 + x71x156x1 + x153x156x1 + x51x156x1 + x262x156x1 + x261x156x1 + x36x156x1 + x227x156x1 + x17x156x1 + x47x156x1 + x103x156x1 + x66x156x1 + x226x156x1 + x187x156x1 
- x156x0x1

= 0
x194x156x2 + x200x156x2 + x84x156x2 + x267x156x2 + x36x156x2 + x17x156x2 + x103x156x2 + x64x156x2 + x148x156x2 + x22x156x2 + x187x156x2 
- x156x0x2

= 0



x194x171x2 + x200x171x2 + x267x171x2 + x36x171x2 + x17x171x2 + x103x171x2 + x64x171x2 + x22x171x2 + x187x171x2 
- x171x0x2

= 0
x11x171x3 + x83x171x3 + x194x171x3 + x244x171x3 + x214x171x3 + x262x171x3 + x261x171x3 + x267x171x3 + x227x171x3 + x47x171x3 + x64x171x3 + x22x171x3 
- x171x0x3

= 0

x11x50x1 + x71x50x1 + x153x50x1 + x51x50x1 + x262x50x1 + x261x50x1 + x36x50x1 + x227x50x1 + x17x50x1 + x47x50x1 + x103x50x1 + x66x50x1 + x226x50x1 + x187x50x1 + x169x50x1 
- x50x0x1

= 0



x11x86x1 + x71x86x1 + x153x86x1 + x51x86x1 + x262x86x1 + x261x86x1 + x36x86x1 + x227x86x1 + x17x86x1 + x47x86x1 + x103x86x1 + x66x86x1 + x226x86x1 + x187x86x1 + x169x86x1 
- x86x0x1

= 0
x194x86x2 + x200x86x2 + x84x86x2 + x267x86x2 + x36x86x2 + x17x86x2 + x103x86x2 + x64x86x2 + x22x86x2 + x187x86x2 + x99x86x2 
- x86x0x2

= 0




x11x37x3 + x83x37x3 + x194x37x3 + x244x37x3 + x214x37x3 + x262x37x3 + x261x37x3 + x267x37x3 + x227x37x3 + x47x37x3 + x64x37x3 + x22x37x3 
- x37x0x3

= 0

1y267 = 0
1y267 - x11x267x3 - x83x267x3 - x214x267x3 - x262x267x3 - x261x267x3 = 0
1y36 - x11x36x1 - x262x36x1 - x261x36x1 = 0
1y36 - x267x36x2 = 0
1y227 - x11x227x1 - x51x227x1 - x262x227x1 - x261x227x1 = 0
1y227 - x11x227x3 - x83x227x3 - x194x227x3 - x214x227x3 - x262x227x3 - x261x227x3 = 0
1y17 - x11x17x1 - x262x17x1 - x261x17x1 - x36x17x1 = 0
1y17 - x267x17x2 - x36x17x2 = 0
1y47 - x11x47x1 - x51x47x1 - x262x47x1 - x261x47x1 - x36x47x1 = 0
1y47 - x11x47x3 - x83x47x3 - x194x47x3 - x214x47x3 - x262x47x3 - x261x47x3 - x267x47x3 = 0
1y103 - x11x103x1 - x51x103x1 - x262x103x1 - x261x103x1 - x36x103x1 - x17x103x1 = 0
1y103 - x194x103x2 - x267x103x2 - x36x103x2 - x17x103x2 = 0
2y66 - x11x66x1 - x51x66x1 - x262x66x1 - x261x66x1 - x36x66x1 - x17x66x1 = 0
1y64 - x194x64x2 - x267x64x2 - x36x64x2 = 0
1y64 - x11x64x3 - x83x64x3 - x194x64x3 - x214x64x3 - x262x64x3 - x261x64x3 - x267x64x3 = 0
2y148 - x194x148x2 - x200x148x2 - x267x148x2 - x36x148x2 - x17x148x2 - x64x148x2 = 0
1y22 - x194x22x2 - x267x22x2 - x36x22x2 - x17x22x2 - x103x22x2 = 0
1y22 - x11x22x3 - x83x22x3 - x194x22x3 - x214x22x3 - x262x22x3 - x261x22x3 - x267x22x3 - x227x22x3 - x47x22x3 = 0
2y226 - x11x226x1 - x71x226x1 - x51x226x1 - x262x226x1 - x261x226x1 - x36x226x1 - x227x226x1 - x17x226x1 - x47x226x1 - x103x226x1 - x66x226x1 = 0
1y187 - x11x187x1 - x71x187x1 - x51x187x1 - x262x187x1 - x261x187x1 - x36x187x1 - x227x187x1 - x17x187x1 - x47x187x1 - x103x187x1 - x66x187x1 = 0
1y187 - x194x187x2 - x200x187x2 - x267x187x2 - x36x187x2 - x17x187x2 - x103x187x2 - x64x187x2 = 0
1y99 - x194x99x2 - x200x99x2 - x267x99x2 - x36x99x2 - x17x99x2 - x103x99x2 = 0
1y99 - x11x99x3 - x83x99x3 - x194x99x3 - x244x99x3 - x214x99x3 - x262x99x3 - x261x99x3 - x267x99x3 - x227x99x3 - x47x99x3 = 0
2y169 - x11x169x1 - x71x169x1 - x51x169x1 - x262x169x1 - x261x169x1 - x36x169x1 - x227x169x1 - x17x169x1 - x47x169x1 - x103x169x1 - x66x169x1 = 0
2y77 - x194x77x2 - x200x77x2 - x267x77x2 - x36x77x2 - x17x77x2 - x103x77x2 - x64x77x2 - x22x77x2 - x187x77x2 = 0
1y156 - x11x156x1 - x71x156x1 - x153x156x1 - x51x156x1 - x262x156x1 - x261x156x1 - x36x156x1 - x227x156x1 - x17x156x1 - x47x156x1 - x103x156x1 - x66x156x1 - x226x156x1 - x187x156x1 = 0
1y156 - x194x156x2 - x200x156x2 - x84x156x2 - x267x156x2 - x36x156x2 - x17x156x2 - x103x156x2 - x64x156x2 - x148x156x2 - x22x156x2 - x187x156x2 = 0
1y171 - x194x171x2 - x200x171x2 - x267x171x2 - x36x171x2 - x17x171x2 - x103x171x2 - x64x171x2 - x22x171x2 - x187x171x2 = 0
1y171 - x11x171x3 - x83x171x3 - x194x171x3 - x244x171x3 - x214x171x3 - x262x171x3 - x261x171x3 - x267x171x3 - x227x171x3 - x47x171x3 - x64x171x3 - x22x171x3 = 0
2y50 - x11x50x1 - x71x50x1 - x153x50x1 - x51x50x1 - x262x50x1 - x261x50x1 - x36x50x1 - x227x50x1 - x17x50x1 - x47x50x1 - x103x50x1 - x66x50x1 - x226x50x1 - x187x50x1 - x169x50x1 = 0
1y86 - x11x86x1 - x71x86x1 - x153x86x1 - x51x86x1 - x262x86x1 - x261x86x1 - x36x86x1 - x227x86x1 - x17x86x1 - x47x86x1 - x103x86x1 - x66x86x1 - x226x86x1 - x187x86x1 - x169x86x1 = 0
1y86 - x194x86x2 - x200x86x2 - x84x86x2 - x267x86x2 - x36x86x2 - x17x86x2 - x103x86x2 - x64x86x2 - x22x86x2 - x187x86x2 - x99x86x2 = 0
2y37 - x11x37x3 - x83x37x3 - x194x37x3 - x244x37x3 - x214x37x3 - x262x37x3 - x261x37x3 - x267x37x3 - x227x37x3 - x47x37x3 - x64x37x3 - x22x37x3 = 0

s11 - s267 + 7.635312z11z267z3 <= 6.27
s11 - s36 + 7.634395z11z36z1 <= 6.27
s11 - s227 + 7.539794z11z227z1 <= 6.27
s11 - s227 + 7.539794z11z227z3 <= 6.27
s11 - s17 + 7.671494z11z17z1 <= 6.27
s11 - s47 + 7.599136z11z47z1 <= 6.27
s11 - s47 + 7.599136z11z47z3 <= 6.27
s11 - s103 + 7.672271z11z103z1 <= 6.27
s11 - s66 + 7.711181z11z66z1 <= 6.27
s11 - s64 + 7.680718z11z64z3 <= 6.27
s11 - s22 + 7.787178z11z22z3 <= 6.27
s11 - s226 + 7.763544z11z226z1 <= 6.27
s11 - s187 + 7.784023z11z187z1 <= 6.27
s11 - s99 + 7.584787z11z99z3 <= 6.27
s11 - s169 + 7.778093z11z169z1 <= 6.27
s11 - s156 + 7.759690z11z156z1 <= 6.27
s11 - s171 + 7.890809z11z171z3 <= 6.27
s11 - s50 + 7.717651z11z50z1 <= 6.27
s11 - s86 + 7.770137z11z86z1 <= 6.27
s11 - s37 + 7.752308z11z37z3 <= 6.27
s71 - s226 + 8.059366z71z226z1 <= 6.61
s71 - s187 + 8.078866z71z187z1 <= 6.61
s71 - s169 + 8.072152z71z169z1 <= 6.61
s71 - s156 + 8.060606z71z156z1 <= 6.61
s71 - s50 + 8.015086z71z50z1 <= 6.61
s71 - s86 + 8.065927z71z86z1 <= 6.61
s83 - s267 + 7.488421z83z267z3 <= 6.11
s83 - s227 + 7.400068z83z227z3 <= 6.11
s83 - s47 + 7.456756z83z47z3 <= 6.11
s83 - s64 + 7.521155z83z64z3 <= 6.11
s83 - s22 + 7.637790z83z22z3 <= 6.11
s83 - s99 + 7.446897z83z99z3 <= 6.11
s83 - s171 + 7.743794z83z171z3 <= 6.11
s83 - s37 + 7.589272z83z37z3 <= 6.11
s153 - s156 + 8.237043z153z156z1 <= 6.93
s153 - s50 + 8.349251z153z50z1 <= 6.93
s153 - s86 + 8.378624z153z86z1 <= 6.93
s194 - s227 + 7.764437z194z227z3 <= 6.49
s194 - s47 + 7.780624z194z47z3 <= 6.49
s194 - s103 + 7.815283z194z103z2 <= 6.49
s194 - s64 + 7.729658z194z64z2 <= 6.49
s194 - s64 + 7.729658z194z64z3 <= 6.49
s194 - s148 + 7.704039z194z148z2 <= 6.49
s194 - s22 + 7.888374z194z22z2 <= 6.49
s194 - s22 + 7.888374z194z22z3 <= 6.49
s194 - s187 + 7.867514z194z187z2 <= 6.49
s194 - s99 + 7.829073z194z99z2 <= 6.49
s194 - s99 + 7.829073z194z99z3 <= 6.49
s194 - s77 + 7.883921z194z77z2 <= 6.49
s194 - s156 + 7.803075z194z156z2 <= 6.49
s194 - s171 + 8.005533z194z171z2 <= 6.49
s194 - s171 + 8.005533z194z171z3 <= 6.49
s194 - s86 + 7.944324z194z86z2 <= 6.49
s194 - s37 + 7.788466z194z37z3 <= 6.49
s200 - s148 + 8.062561z200z148z2 <= 6.70
s200 - s187 + 8.156367z200z187z2 <= 6.70
s200 - s99 + 7.964980z200z99z2 <= 6.70
s200 - s77 + 8.182098z200z77z2 <= 6.70
s200 - s156 + 8.140640z200z156z2 <= 6.70
s200 - s171 + 8.261092z200z171z2 <= 6.70
s200 - s86 + 8.142662z200z86z2 <= 6.70
s51 - s227 + 7.697670z51z227z1 <= 6.55
s51 - s47 + 7.736262z51z47z1 <= 6.55
s51 - s103 + 7.799947z51z103z1 <= 6.55
s51 - s66 + 7.835970z51z66z1 <= 6.55
s51 - s226 + 7.893000z51z226z1 <= 6.55
s51 - s187 + 7.910699z51z187z1 <= 6.55
s51 - s169 + 7.907512z51z169z1 <= 6.55
s51 - s156 + 7.905908z51z156z1 <= 6.55
s51 - s50 + 7.865552z51z50z1 <= 6.55
s51 - s86 + 7.909232z51z86z1 <= 6.55
s244 - s99 + 7.985809z244z99z3 <= 6.83
s244 - s171 + 8.284481z244z171z3 <= 6.83
s244 - s37 + 8.221796z244z37z3 <= 6.83
s84 - s156 + 8.434617z84z156z2 <= 7.24
s84 - s86 + 8.528419z84z86z2 <= 7.24
s214 - s267 + 7.456187z214z267z3 <= 5.91
s214 - s227 + 7.386471z214z227z3 <= 5.91
s214 - s47 + 7.437477z214z47z3 <= 5.91
s214 - s64 + 7.439213z214z64z3 <= 5.91
s214 - s22 + 7.593854z214z22z3 <= 5.91
s214 - s99 + 7.435309z214z99z3 <= 5.91
s214 - s171 + 7.707145z214z171z3 <= 5.91
s214 - s37 + 7.486932z214z37z3 <= 5.91
s262 - s267 + 7.407864z262z267z3 <= 5.89
s262 - s36 + 7.413980z262z36z1 <= 5.89
s262 - s227 + 7.494225z262z227z1 <= 5.89
s262 - s227 + 7.494225z262z227z3 <= 5.89
s262 - s17 + 7.404324z262z17z1 <= 5.89
s262 - s47 + 7.471227z262z47z1 <= 5.89
s262 - s47 + 7.471227z262z47z3 <= 5.89
s262 - s103 + 7.448914z262z103z1 <= 5.89
s262 - s66 + 7.392489z262z66z1 <= 5.89
s262 - s64 + 7.220689z262z64z3 <= 5.89
s262 - s22 + 7.420698z262z22z3 <= 5.89
s262 - s226 + 7.325481z262z226z1 <= 5.89
s262 - s187 + 7.367708z262z187z1 <= 5.89
s262 - s99 + 7.558180z262z99z3 <= 5.89
s262 - s169 + 7.520064z262z169z1 <= 5.89
s262 - s156 + 7.207256z262z156z1 <= 5.89
s262 - s171 + 7.527933z262z171z3 <= 5.89
s262 - s50 + 7.583847z262z50z1 <= 5.89
s262 - s86 + 7.581017z262z86z1 <= 5.89
s262 - s37 + 7.164794z262z37z3 <= 5.89
s261 - s267 + 7.424788z261z267z3 <= 5.99
s261 - s36 + 7.431282z261z36z1 <= 5.99
s261 - s227 + 7.533226z261z227z1 <= 5.99
s261 - s227 + 7.533226z261z227z3 <= 5.99
s261 - s17 + 7.414527z261z17z1 <= 5.99
s261 - s47 + 7.497594z261z47z1 <= 5.99
s261 - s47 + 7.497594z261z47z3 <= 5.99
s261 - s103 + 7.461019z261z103z1 <= 5.99
s261 - s66 + 7.395407z261z66z1 <= 5.99
s261 - s64 + 7.229230z261z64z3 <= 5.99
s261 - s22 + 7.413695z261z22z3 <= 5.99
s261 - s226 + 7.317552z261z226z1 <= 5.99
s261 - s187 + 7.358582z261z187z1 <= 5.99
s261 - s99 + 7.593812z261z99z3 <= 5.99
s261 - s169 + 7.520309z261z169z1 <= 5.99
s261 - s156 + 7.197378z261z156z1 <= 5.99
s261 - s171 + 7.515290z261z171z3 <= 5.99
s261 - s50 + 7.598297z261z50z1 <= 5.99
s261 - s86 + 7.587078z261z86z1 <= 5.99
s261 - s37 + 7.156919z261z37z3 <= 5.99
s267 - s36 + 8.706667z267z36z2 <= 7.70
s267 - s17 + 8.738873z267z17z2 <= 7.70
s267 - s47 + 8.786667z267z47z3 <= 7.70
s267 - s103 + 8.748074z267z103z2 <= 7.70
s267 - s64 + 8.896186z267z64z2 <= 7.70
s267 - s64 + 8.896186z267z64z3 <= 7.70
s267 - s148 + 8.972356z267z148z2 <= 7.70
s267 - s22 + 8.858044z267z22z2 <= 7.70
s267 - s22 + 8.858044z267z22z3 <= 7.70
s267 - s187 + 8.874483z267z187z2 <= 7.70
s267 - s99 + 8.894365z267z99z2 <= 7.70
s267 - s99 + 8.894365z267z99z3 <= 7.70
s267 - s77 + 8.908273z267z77z2 <= 7.70
s267 - s156 + 8.954122z267z156z2 <= 7.70
s267 - s171 + 8.955517z267z171z2 <= 7.70
s267 - s171 + 8.955517z267z171z3 <= 7.70
s267 - s86 + 8.883908z267z86z2 <= 7.70
s267 - s37 + 8.980317z267z37z3 <= 7.70
s36 - s17 + 8.752687z36z17z1 <= 7.71
s36 - s17 + 8.752687z36z17z2 <= 7.71
s36 - s47 + 8.790554z36z47z1 <= 7.71
s36 - s103 + 8.754722z36z103z1 <= 7.71
s36 - s103 + 8.754722z36z103z2 <= 7.71
s36 - s66 + 8.799691z36z66z1 <= 7.71
s36 - s64 + 8.912759z36z64z2 <= 7.71
s36 - s148 + 8.988567z36z148z2 <= 7.71
s36 - s22 + 8.871245z36z22z2 <= 7.71
s36 - s226 + 8.891965z36z226z1 <= 7.71
s36 - s187 + 8.889381z36z187z1 <= 7.71
s36 - s187 + 8.889381z36z187z2 <= 7.71
s36 - s99 + 8.898208z36z99z2 <= 7.71
s36 - s169 + 8.862023z36z169z1 <= 7.71
s36 - s77 + 8.923437z36z77z2 <= 7.71
s36 - s156 + 8.970768z36z156z1 <= 7.71
s36 - s156 + 8.970768z36z156z2 <= 7.71
s36 - s171 + 8.966472z36z171z2 <= 7.71
s36 - s50 + 8.879968z36z50z1 <= 7.71
s36 - s86 + 8.889381z36z86z1 <= 7.71
s36 - s86 + 8.889381z36z86z2 <= 7.71
s227 - s22 + 9.088184z227z22z3 <= 7.78
s227 - s226 + 9.110992z227z226z1 <= 7.78
s227 - s187 + 9.110521z227z187z1 <= 7.78
s227 - s99 + 8.845659z227z99z3 <= 7.78
s227 - s169 + 9.037337z227z169z1 <= 7.78
s227 - s156 + 9.172146z227z156z1 <= 7.78
s227 - s171 + 9.165170z227z171z3 <= 7.78
s227 - s50 + 8.957890z227z50z1 <= 7.78
s227 - s86 + 9.013429z227z86z1 <= 7.78
s227 - s37 + 9.189281z227z37z3 <= 7.78
s17 - s103 + 8.837140z17z103z1 <= 7.79
s17 - s103 + 8.837140z17z103z2 <= 7.79
s17 - s66 + 8.837140z17z66z1 <= 7.79
s17 - s148 + 9.058742z17z148z2 <= 7.79
s17 - s22 + 8.909257z17z22z2 <= 7.79
s17 - s226 + 8.933604z17z226z1 <= 7.79
s17 - s187 + 8.927437z17z187z1 <= 7.79
s17 - s187 + 8.927437z17z187z2 <= 7.79
s17 - s99 + 9.016666z17z99z2 <= 7.79
s17 - s169 + 8.921487z17z169z1 <= 7.79
s17 - s77 + 8.962047z17z77z2 <= 7.79
s17 - s156 + 9.023714z17z156z1 <= 7.79
s17 - s156 + 9.023714z17z156z2 <= 7.79
s17 - s171 + 9.010404z17z171z2 <= 7.79
s17 - s50 + 8.974391z17z50z1 <= 7.79
s17 - s86 + 8.967514z17z86z1 <= 7.79
s17 - s86 + 8.967514z17z86z2 <= 7.79
s47 - s22 + 9.031421z47z22z3 <= 7.80
s47 - s226 + 9.062383z47z226z1 <= 7.80
s47 - s187 + 9.057337z47z187z1 <= 7.80
s47 - s99 + 8.907703z47z99z3 <= 7.80
s47 - s169 + 8.983061z47z169z1 <= 7.80
s47 - s156 + 9.137573z47z156z1 <= 7.80
s47 - s171 + 9.108257z47z171z3 <= 7.80
s47 - s50 + 8.933333z47z50z1 <= 7.80
s47 - s86 + 8.973077z47z86z1 <= 7.80
s47 - s37 + 9.160555z47z37z3 <= 7.80
s103 - s22 + 9.021421z103z22z2 <= 7.88
s103 - s226 + 9.065951z103z226z1 <= 7.88
s103 - s187 + 9.052948z103z187z1 <= 7.88
s103 - s187 + 9.052948z103z187z2 <= 7.88
s103 - s99 + 9.070671z103z99z2 <= 7.88
s103 - s169 + 8.988525z103z169z1 <= 7.88
s103 - s77 + 9.088699z103z77z2 <= 7.88
s103 - s156 + 9.160713z103z156z1 <= 7.88
s103 - s156 + 9.160713z103z156z2 <= 7.88
s103 - s171 + 9.101610z103z171z2 <= 7.88
s103 - s50 + 9.017437z103z50z1 <= 7.88
s103 - s86 + 9.016788z103z86z1 <= 7.88
s103 - s86 + 9.016788z103z86z2 <= 7.88
s66 - s226 + 8.991981z66z226z1 <= 7.89
s66 - s187 + 8.980677z66z187z1 <= 7.89
s66 - s169 + 9.018063z66z169z1 <= 7.89
s66 - s156 + 9.095372z66z156z1 <= 7.89
s66 - s50 + 9.103437z66z50z1 <= 7.89
s66 - s86 + 9.081949z66z86z1 <= 7.89
s64 - s148 + 9.039691z64z148z2 <= 7.95
s64 - s187 + 9.117199z64z187z2 <= 7.95
s64 - s77 + 9.119967z64z77z2 <= 7.95
s64 - s156 + 9.030277z64z156z2 <= 7.95
s64 - s171 + 9.278296z64z171z2 <= 7.95
s64 - s171 + 9.278296z64z171z3 <= 7.95
s64 - s86 + 9.310802z64z86z2 <= 7.95
s64 - s37 + 9.038944z64z37z3 <= 7.95
s148 - s156 + 9.220000z148z156z2 <= 8.10
s22 - s77 + 9.236922z22z77z2 <= 8.15
s22 - s156 + 9.366333z22z156z2 <= 8.15
s22 - s171 + 9.270185z22z171z2 <= 8.15
s22 - s171 + 9.270185z22z171z3 <= 8.15
s22 - s86 + 9.350111z22z86z2 <= 8.15
s22 - s37 + 9.407336z22z37z3 <= 8.15
s226 - s156 + 9.280185z226z156z1 <= 8.16
s226 - s50 + 9.473617z226z50z1 <= 8.16
s226 - s86 + 9.443862z226z86z1 <= 8.16
s187 - s77 + 9.215901z187z77z2 <= 8.18
s187 - s156 + 9.341383z187z156z1 <= 8.18
s187 - s156 + 9.341383z187z156z2 <= 8.18
s187 - s171 + 9.342754z187z171z2 <= 8.18
s187 - s50 + 9.470441z187z50z1 <= 8.18
s187 - s86 + 9.433684z187z86z1 <= 8.18
s187 - s86 + 9.433684z187z86z2 <= 8.18
s99 - s86 + 9.443437z99z86z2 <= 8.23
s169 - s50 + 9.404990z169z50z1 <= 8.27
s169 - s86 + 9.351104z169z86z1 <= 8.27

x11x267x3 - 1z11z267z3 <= 0
x11x36x1 - 1z11z36z1 <= 0
x11x227x1 - 1z11z227z1 <= 0
x11x227x3 - 1z11z227z3 <= 0
x11x17x1 - 1z11z17z1 <= 0
x11x47x1 - 1z11z47z1 <= 0
x11x47x3 - 1z11z47z3 <= 0
x11x103x1 - 1z11z103z1 <= 0
x11x66x1 - 2z11z66z1 <= 0
x11x64x3 - 1z11z64z3 <= 0
x11x22x3 - 1z11z22z3 <= 0
x11x226x1 - 2z11z226z1 <= 0
x11x187x1 - 1z11z187z1 <= 0
x11x99x3 - 1z11z99z3 <= 0
x11x169x1 - 2z11z169z1 <= 0
x11x156x1 - 1z11z156z1 <= 0
x11x171x3 - 1z11z171z3 <= 0
x11x50x1 - 2z11z50z1 <= 0
x11x86x1 - 1z11z86z1 <= 0
x11x37x3 - 2z11z37z3 <= 0
x71x226x1 - 2z71z226z1 <= 0
x71x187x1 - 1z71z187z1 <= 0
x71x169x1 - 2z71z169z1 <= 0
x71x156x1 - 1z71z156z1 <= 0
x71x50x1 - 2z71z50z1 <= 0
x71x86x1 - 1z71z86z1 <= 0
x83x267x3 - 1z83z267z3 <= 0
x83x227x3 - 1z83z227z3 <= 0
x83x47x3 - 1z83z47z3 <= 0
x83x64x3 - 1z83z64z3 <= 0
x83x22x3 - 1z83z22z3 <= 0
x83x99x3 - 1z83z99z3 <= 0
x83x171x3 - 1z83z171z3 <= 0
x83x37x3 - 2z83z37z3 <= 0
x153x156x1 - 1z153z156z1 <= 0
x153x50x1 - 2z153z50z1 <= 0
x153x86x1 - 1z153z86z1 <= 0
x194x227x3 - 1z194z227z3 <= 0
x194x47x3 - 1z194z47z3 <= 0
x194x103x2 - 1z194z103z2 <= 0
x194x64x2 - 1z194z64z2 <= 0
x194x64x3 - 1z194z64z3 <= 0
x194x148x2 - 2z194z148z2 <= 0
x194x22x2 - 1z194z22z2 <= 0
x194x22x3 - 1z194z22z3 <= 0
x194x187x2 - 1z194z187z2 <= 0
x194x99x2 - 1z194z99z2 <= 0
x194x99x3 - 1z194z99z3 <= 0
x194x77x2 - 2z194z77z2 <= 0
x194x156x2 - 1z194z156z2 <= 0
x194x171x2 - 1z194z171z2 <= 0
x194x171x3 - 1z194z171z3 <= 0
x194x86x2 - 1z194z86z2 <= 0
x194x37x3 - 2z194z37z3 <= 0
x200x148x2 - 2z200z148z2 <= 0
x200x187x2 - 1z200z187z2 <= 0
x200x99x2 - 1z200z99z2 <= 0
x200x77x2 - 2z200z77z2 <= 0
x200x156x2 - 1z200z156z2 <= 0
x200x171x2 - 1z200z171z2 <= 0
x200x86x2 - 1z200z86z2 <= 0
x51x227x1 - 1z51z227z1 <= 0
x51x47x1 - 1z51z47z1 <= 0
x51x103x1 - 1z51z103z1 <= 0
x51x66x1 - 2z51z66z1 <= 0
x51x226x1 - 2z51z226z1 <= 0
x51x187x1 - 1z51z187z1 <= 0
x51x169x1 - 2z51z169z1 <= 0
x51x156x1 - 1z51z156z1 <= 0
x51x50x1 - 2z51z50z1 <= 0
x51x86x1 - 1z51z86z1 <= 0
x244x99x3 - 1z244z99z3 <= 0
x244x171x3 - 1z244z171z3 <= 0
x244x37x3 - 2z244z37z3 <= 0
x84x156x2 - 1z84z156z2 <= 0
x84x86x2 - 1z84z86z2 <= 0
x214x267x3 - 1z214z267z3 <= 0
x214x227x3 - 1z214z227z3 <= 0
x214x47x3 - 1z214z47z3 <= 0
x214x64x3 - 1z214z64z3 <= 0
x214x22x3 - 1z214z22z3 <= 0
x214x99x3 - 1z214z99z3 <= 0
x214x171x3 - 1z214z171z3 <= 0
x214x37x3 - 2z214z37z3 <= 0
x262x267x3 - 1z262z267z3 <= 0
x262x36x1 - 1z262z36z1 <= 0
x262x227x1 - 1z262z227z1 <= 0
x262x227x3 - 1z262z227z3 <= 0
x262x17x1 - 1z262z17z1 <= 0
x262x47x1 - 1z262z47z1 <= 0
x262x47x3 - 1z262z47z3 <= 0
x262x103x1 - 1z262z103z1 <= 0
x262x66x1 - 2z262z66z1 <= 0
x262x64x3 - 1z262z64z3 <= 0
x262x22x3 - 1z262z22z3 <= 0
x262x226x1 - 2z262z226z1 <= 0
x262x187x1 - 1z262z187z1 <= 0
x262x99x3 - 1z262z99z3 <= 0
x262x169x1 - 2z262z169z1 <= 0
x262x156x1 - 1z262z156z1 <= 0
x262x171x3 - 1z262z171z3 <= 0
x262x50x1 - 2z262z50z1 <= 0
x262x86x1 - 1z262z86z1 <= 0
x262x37x3 - 2z262z37z3 <= 0
x261x267x3 - 1z261z267z3 <= 0
x261x36x1 - 1z261z36z1 <= 0
x261x227x1 - 1z261z227z1 <= 0
x261x227x3 - 1z261z227z3 <= 0
x261x17x1 - 1z261z17z1 <= 0
x261x47x1 - 1z261z47z1 <= 0
x261x47x3 - 1z261z47z3 <= 0
x261x103x1 - 1z261z103z1 <= 0
x261x66x1 - 2z261z66z1 <= 0
x261x64x3 - 1z261z64z3 <= 0
x261x22x3 - 1z261z22z3 <= 0
x261x226x1 - 2z261z226z1 <= 0
x261x187x1 - 1z261z187z1 <= 0
x261x99x3 - 1z261z99z3 <= 0
x261x169x1 - 2z261z169z1 <= 0
x261x156x1 - 1z261z156z1 <= 0
x261x171x3 - 1z261z171z3 <= 0
x261x50x1 - 2z261z50z1 <= 0
x261x86x1 - 1z261z86z1 <= 0
x261x37x3 - 2z261z37z3 <= 0
x267x36x2 - 1z267z36z2 <= 0
x267x17x2 - 1z267z17z2 <= 0
x267x47x3 - 1z267z47z3 <= 0
x267x103x2 - 1z267z103z2 <= 0
x267x64x2 - 1z267z64z2 <= 0
x267x64x3 - 1z267z64z3 <= 0
x267x148x2 - 2z267z148z2 <= 0
x267x22x2 - 1z267z22z2 <= 0
x267x22x3 - 1z267z22z3 <= 0
x267x187x2 - 1z267z187z2 <= 0
x267x99x2 - 1z267z99z2 <= 0
x267x99x3 - 1z267z99z3 <= 0
x267x77x2 - 2z267z77z2 <= 0
x267x156x2 - 1z267z156z2 <= 0
x267x171x2 - 1z267z171z2 <= 0
x267x171x3 - 1z267z171z3 <= 0
x267x86x2 - 1z267z86z2 <= 0
x267x37x3 - 2z267z37z3 <= 0
x267x0x2 <= 1
x267x0x3 <= 1
x36x17x1 - 1z36z17z1 <= 0
x36x17x2 - 1z36z17z2 <= 0
x36x47x1 - 1z36z47z1 <= 0
x36x103x1 - 1z36z103z1 <= 0
x36x103x2 - 1z36z103z2 <= 0
x36x66x1 - 2z36z66z1 <= 0
x36x64x2 - 1z36z64z2 <= 0
x36x148x2 - 2z36z148z2 <= 0
x36x22x2 - 1z36z22z2 <= 0
x36x226x1 - 2z36z226z1 <= 0
x36x187x1 - 1z36z187z1 <= 0
x36x187x2 - 1z36z187z2 <= 0
x36x99x2 - 1z36z99z2 <= 0
x36x169x1 - 2z36z169z1 <= 0
x36x77x2 - 2z36z77z2 <= 0
x36x156x1 - 1z36z156z1 <= 0
x36x156x2 - 1z36z156z2 <= 0
x36x171x2 - 1z36z171z2 <= 0
x36x50x1 - 2z36z50z1 <= 0
x36x86x1 - 1z36z86z1 <= 0
x36x86x2 - 1z36z86z2 <= 0
x36x0x1 <= 1
x36x0x2 <= 1
x227x22x3 - 1z227z22z3 <= 0
x227x226x1 - 2z227z226z1 <= 0
x227x187x1 - 1z227z187z1 <= 0
x227x99x3 - 1z227z99z3 <= 0
x227x169x1 - 2z227z169z1 <= 0
x227x156x1 - 1z227z156z1 <= 0
x227x171x3 - 1z227z171z3 <= 0
x227x50x1 - 2z227z50z1 <= 0
x227x86x1 - 1z227z86z1 <= 0
x227x37x3 - 2z227z37z3 <= 0
x227x0x1 <= 1
x227x0x3 <= 1
x17x103x1 - 1z17z103z1 <= 0
x17x103x2 - 1z17z103z2 <= 0
x17x66x1 - 2z17z66z1 <= 0
x17x148x2 - 2z17z148z2 <= 0
x17x22x2 - 1z17z22z2 <= 0
x17x226x1 - 2z17z226z1 <= 0
x17x187x1 - 1z17z187z1 <= 0
x17x187x2 - 1z17z187z2 <= 0
x17x99x2 - 1z17z99z2 <= 0
x17x169x1 - 2z17z169z1 <= 0
x17x77x2 - 2z17z77z2 <= 0
x17x156x1 - 1z17z156z1 <= 0
x17x156x2 - 1z17z156z2 <= 0
x17x171x2 - 1z17z171z2 <= 0
x17x50x1 - 2z17z50z1 <= 0
x17x86x1 - 1z17z86z1 <= 0
x17x86x2 - 1z17z86z2 <= 0
x17x0x1 <= 1
x17x0x2 <= 1
x47x22x3 - 1z47z22z3 <= 0
x47x226x1 - 2z47z226z1 <= 0
x47x187x1 - 1z47z187z1 <= 0
x47x99x3 - 1z47z99z3 <= 0
x47x169x1 - 2z47z169z1 <= 0
x47x156x1 - 1z47z156z1 <= 0
x47x171x3 - 1z47z171z3 <= 0
x47x50x1 - 2z47z50z1 <= 0
x47x86x1 - 1z47z86z1 <= 0
x47x37x3 - 2z47z37z3 <= 0
x47x0x1 <= 1
x47x0x3 <= 1
x103x22x2 - 1z103z22z2 <= 0
x103x226x1 - 2z103z226z1 <= 0
x103x187x1 - 1z103z187z1 <= 0
x103x187x2 - 1z103z187z2 <= 0
x103x99x2 - 1z103z99z2 <= 0
x103x169x1 - 2z103z169z1 <= 0
x103x77x2 - 2z103z77z2 <= 0
x103x156x1 - 1z103z156z1 <= 0
x103x156x2 - 1z103z156z2 <= 0
x103x171x2 - 1z103z171z2 <= 0
x103x50x1 - 2z103z50z1 <= 0
x103x86x1 - 1z103z86z1 <= 0
x103x86x2 - 1z103z86z2 <= 0
x103x0x1 <= 1
x103x0x2 <= 1
x66x226x1 - 2z66z226z1 <= 0
x66x187x1 - 1z66z187z1 <= 0
x66x169x1 - 2z66z169z1 <= 0
x66x156x1 - 1z66z156z1 <= 0
x66x50x1 - 2z66z50z1 <= 0
x66x86x1 - 1z66z86z1 <= 0
x66x0x1 <= 2
x64x148x2 - 2z64z148z2 <= 0
x64x187x2 - 1z64z187z2 <= 0
x64x77x2 - 2z64z77z2 <= 0
x64x156x2 - 1z64z156z2 <= 0
x64x171x2 - 1z64z171z2 <= 0
x64x171x3 - 1z64z171z3 <= 0
x64x86x2 - 1z64z86z2 <= 0
x64x37x3 - 2z64z37z3 <= 0
x64x0x2 <= 1
x64x0x3 <= 1
x148x156x2 - 1z148z156z2 <= 0
x148x0x2 <= 2
x22x77x2 - 2z22z77z2 <= 0
x22x156x2 - 1z22z156z2 <= 0
x22x171x2 - 1z22z171z2 <= 0
x22x171x3 - 1z22z171z3 <= 0
x22x86x2 - 1z22z86z2 <= 0
x22x37x3 - 2z22z37z3 <= 0
x22x0x2 <= 1
x22x0x3 <= 1
x226x156x1 - 1z226z156z1 <= 0
x226x50x1 - 2z226z50z1 <= 0
x226x86x1 - 1z226z86z1 <= 0
x226x0x1 <= 2
x187x77x2 - 2z187z77z2 <= 0
x187x156x1 - 1z187z156z1 <= 0
x187x156x2 - 1z187z156z2 <= 0
x187x171x2 - 1z187z171z2 <= 0
x187x50x1 - 2z187z50z1 <= 0
x187x86x1 - 1z187z86z1 <= 0
x187x86x2 - 1z187z86z2 <= 0
x187x0x1 <= 1
x187x0x2 <= 1
x99x86x2 - 1z99z86z2 <= 0
x99x0x2 <= 1
x99x0x3 <= 1
x169x50x1 - 2z169z50z1 <= 0
x169x86x1 - 1z169z86z1 <= 0
x169x0x1 <= 2
x77x0x2 <= 2
x156x0x1 <= 1
x156x0x2 <= 1
x171x0x2 <= 1
x171x0x3 <= 1
x50x0x1 <= 2
x86x0x1 <= 1
x86x0x2 <= 1
x37x0x3 <= 2

Bounds
s11 = 6.271383
s71 = 6.612152
s83 = 6.106962
s153 = 6.932704
s194 = 6.486988
s200 = 6.702006
s51 = 6.546526
s244 = 6.825255
s84 = 7.240824
s182 = 7.374657
s57 = 7.625122
s214 = 5.913560
s262 = 5.891380
s261 = 5.986560
6.700000 <= s267 <= 7.700000
6.710000 <= s36 <= 7.710000
6.780000 <= s227 <= 7.780000
6.790000 <= s17 <= 7.790000
6.800000 <= s47 <= 7.800000
6.880000 <= s103 <= 7.880000
6.890000 <= s66 <= 7.890000
6.950000 <= s64 <= 7.950000
7.100000 <= s148 <= 8.100000
7.150000 <= s22 <= 8.150000
7.160000 <= s226 <= 8.160000
7.180000 <= s187 <= 8.180000
7.230000 <= s99 <= 8.230000
7.270000 <= s169 <= 8.270000
7.330000 <= s77 <= 8.330000
7.460000 <= s156 <= 8.460000
7.500000 <= s171 <= 8.500000
7.540000 <= s50 <= 8.540000
7.540000 <= s86 <= 8.540000
7.550000 <= s37 <= 8.550000

General
x11x267x3 x11x36x1 x11x227x1 x11x227x3 x11x17x1 x11x47x1 x11x47x3 x11x103x1 x11x66x1 x11x64x3 x11x22x3 x11x226x1 x11x187x1 x11x99x3 x11x169x1 x11x156x1 x11x171x3 x11x50x1 x11x86x1 x11x37x3 
x71x226x1 x71x187x1 x71x169x1 x71x156x1 x71x50x1 x71x86x1 
x83x267x3 x83x227x3 x83x47x3 x83x64x3 x83x22x3 x83x99x3 x83x171x3 x83x37x3 
x153x156x1 x153x50x1 x153x86x1 
x194x227x3 x194x47x3 x194x103x2 x194x64x2 x194x64x3 x194x148x2 x194x22x2 x194x22x3 x194x187x2 x194x99x2 x194x99x3 x194x77x2 x194x156x2 x194x171x2 x194x171x3 x194x86x2 x194x37x3 
x200x148x2 x200x187x2 x200x99x2 x200x77x2 x200x156x2 x200x171x2 x200x86x2 
x51x227x1 x51x47x1 x51x103x1 x51x66x1 x51x226x1 x51x187x1 x51x169x1 x51x156x1 x51x50x1 x51x86x1 
x244x99x3 x244x171x3 x244x37x3 
x84x156x2 x84x86x2 


x214x267x3 x214x227x3 x214x47x3 x214x64x3 x214x22x3 x214x99x3 x214x171x3 x214x37x3 
x262x267x3 x262x36x1 x262x227x1 x262x227x3 x262x17x1 x262x47x1 x262x47x3 x262x103x1 x262x66x1 x262x64x3 x262x22x3 x262x226x1 x262x187x1 x262x99x3 x262x169x1 x262x156x1 x262x171x3 x262x50x1 x262x86x1 x262x37x3 
x261x267x3 x261x36x1 x261x227x1 x261x227x3 x261x17x1 x261x47x1 x261x47x3 x261x103x1 x261x66x1 x261x64x3 x261x22x3 x261x226x1 x261x187x1 x261x99x3 x261x169x1 x261x156x1 x261x171x3 x261x50x1 x261x86x1 x261x37x3 
x267x36x2 x267x17x2 x267x47x3 x267x103x2 x267x64x2 x267x64x3 x267x148x2 x267x22x2 x267x22x3 x267x187x2 x267x99x2 x267x99x3 x267x77x2 x267x156x2 x267x171x2 x267x171x3 x267x86x2 x267x37x3 x267x0x2 x267x0x3 
x36x17x1 x36x17x2 x36x47x1 x36x103x1 x36x103x2 x36x66x1 x36x64x2 x36x148x2 x36x22x2 x36x226x1 x36x187x1 x36x187x2 x36x99x2 x36x169x1 x36x77x2 x36x156x1 x36x156x2 x36x171x2 x36x50x1 x36x86x1 x36x86x2 x36x0x1 x36x0x2 
x227x22x3 x227x226x1 x227x187x1 x227x99x3 x227x169x1 x227x156x1 x227x171x3 x227x50x1 x227x86x1 x227x37x3 x227x0x1 x227x0x3 
x17x103x1 x17x103x2 x17x66x1 x17x148x2 x17x22x2 x17x226x1 x17x187x1 x17x187x2 x17x99x2 x17x169x1 x17x77x2 x17x156x1 x17x156x2 x17x171x2 x17x50x1 x17x86x1 x17x86x2 x17x0x1 x17x0x2 
x47x22x3 x47x226x1 x47x187x1 x47x99x3 x47x169x1 x47x156x1 x47x171x3 x47x50x1 x47x86x1 x47x37x3 x47x0x1 x47x0x3 
x103x22x2 x103x226x1 x103x187x1 x103x187x2 x103x99x2 x103x169x1 x103x77x2 x103x156x1 x103x156x2 x103x171x2 x103x50x1 x103x86x1 x103x86x2 x103x0x1 x103x0x2 
x66x226x1 x66x187x1 x66x169x1 x66x156x1 x66x50x1 x66x86x1 x66x0x1 
x64x148x2 x64x187x2 x64x77x2 x64x156x2 x64x171x2 x64x171x3 x64x86x2 x64x37x3 x64x0x2 x64x0x3 
x148x156x2 x148x0x2 
x22x77x2 x22x156x2 x22x171x2 x22x171x3 x22x86x2 x22x37x3 x22x0x2 x22x0x3 
x226x156x1 x226x50x1 x226x86x1 x226x0x1 
x187x77x2 x187x156x1 x187x156x2 x187x171x2 x187x50x1 x187x86x1 x187x86x2 x187x0x1 x187x0x2 
x99x86x2 x99x0x2 x99x0x3 
x169x50x1 x169x86x1 x169x0x1 
x77x0x2 
x156x0x1 x156x0x2 
x171x0x2 x171x0x3 
x50x0x1 
x86x0x1 x86x0x2 
x37x0x3 

Binaries
y267 y36 y227 y17 y47 y103 y66 y64 y148 y22 y226 y187 y99 y169 y77 y156 y171 y50 y86 y37 
z11z267z3 z11z36z1 z11z227z1 z11z227z3 z11z17z1 z11z47z1 z11z47z3 z11z103z1 z11z66z1 z11z64z3 z11z22z3 z11z226z1 z11z187z1 z11z99z3 z11z169z1 z11z156z1 z11z171z3 z11z50z1 z11z86z1 z11z37z3 
z71z226z1 z71z187z1 z71z169z1 z71z156z1 z71z50z1 z71z86z1 
z83z267z3 z83z227z3 z83z47z3 z83z64z3 z83z22z3 z83z99z3 z83z171z3 z83z37z3 
z153z156z1 z153z50z1 z153z86z1 
z194z227z3 z194z47z3 z194z103z2 z194z64z2 z194z64z3 z194z148z2 z194z22z2 z194z22z3 z194z187z2 z194z99z2 z194z99z3 z194z77z2 z194z156z2 z194z171z2 z194z171z3 z194z86z2 z194z37z3 
z200z148z2 z200z187z2 z200z99z2 z200z77z2 z200z156z2 z200z171z2 z200z86z2 
z51z227z1 z51z47z1 z51z103z1 z51z66z1 z51z226z1 z51z187z1 z51z169z1 z51z156z1 z51z50z1 z51z86z1 
z244z99z3 z244z171z3 z244z37z3 
z84z156z2 z84z86z2 


z214z267z3 z214z227z3 z214z47z3 z214z64z3 z214z22z3 z214z99z3 z214z171z3 z214z37z3 
z262z267z3 z262z36z1 z262z227z1 z262z227z3 z262z17z1 z262z47z1 z262z47z3 z262z103z1 z262z66z1 z262z64z3 z262z22z3 z262z226z1 z262z187z1 z262z99z3 z262z169z1 z262z156z1 z262z171z3 z262z50z1 z262z86z1 z262z37z3 
z261z267z3 z261z36z1 z261z227z1 z261z227z3 z261z17z1 z261z47z1 z261z47z3 z261z103z1 z261z66z1 z261z64z3 z261z22z3 z261z226z1 z261z187z1 z261z99z3 z261z169z1 z261z156z1 z261z171z3 z261z50z1 z261z86z1 z261z37z3 
z267z36z2 z267z17z2 z267z47z3 z267z103z2 z267z64z2 z267z64z3 z267z148z2 z267z22z2 z267z22z3 z267z187z2 z267z99z2 z267z99z3 z267z77z2 z267z156z2 z267z171z2 z267z171z3 z267z86z2 z267z37z3 
z36z17z1 z36z17z2 z36z47z1 z36z103z1 z36z103z2 z36z66z1 z36z64z2 z36z148z2 z36z22z2 z36z226z1 z36z187z1 z36z187z2 z36z99z2 z36z169z1 z36z77z2 z36z156z1 z36z156z2 z36z171z2 z36z50z1 z36z86z1 z36z86z2 
z227z22z3 z227z226z1 z227z187z1 z227z99z3 z227z169z1 z227z156z1 z227z171z3 z227z50z1 z227z86z1 z227z37z3 
z17z103z1 z17z103z2 z17z66z1 z17z148z2 z17z22z2 z17z226z1 z17z187z1 z17z187z2 z17z99z2 z17z169z1 z17z77z2 z17z156z1 z17z156z2 z17z171z2 z17z50z1 z17z86z1 z17z86z2 
z47z22z3 z47z226z1 z47z187z1 z47z99z3 z47z169z1 z47z156z1 z47z171z3 z47z50z1 z47z86z1 z47z37z3 
z103z22z2 z103z226z1 z103z187z1 z103z187z2 z103z99z2 z103z169z1 z103z77z2 z103z156z1 z103z156z2 z103z171z2 z103z50z1 z103z86z1 z103z86z2 
z66z226z1 z66z187z1 z66z169z1 z66z156z1 z66z50z1 z66z86z1 
z64z148z2 z64z187z2 z64z77z2 z64z156z2 z64z171z2 z64z171z3 z64z86z2 z64z37z3 
z148z156z2 
z22z77z2 z22z156z2 z22z171z2 z22z171z3 z22z86z2 z22z37z3 
z226z156z1 z226z50z1 z226z86z1 
z187z77z2 z187z156z1 z187z156z2 z187z171z2 z187z50z1 z187z86z1 z187z86z2 
z99z86z2 
z169z50z1 z169z86z1 







End